<?xml version="1.0" encoding="UTF-8"?>
<!-- The same synthetic scan as silicon-cu-ka.xy, in XRDML form -->
<xrdMeasurements xmlns="http://www.xrdml.com/XRDMeasurement/1.5">
  <scan>
    <dataPoints>1401</dataPoints>
    <positions axis="2Theta" unit="deg"><startPosition>10.0000</startPosition><endPosition>80.0000</endPosition></positions>
    <intensities unit="counts">2.1000000 2.1005000 2.1010000 2.1015000 2.1020000 2.1025000 2.1030000 2.1035000 2.1040000 2.1045000 2.1050000 2.1055000 2.1060000 2.1065000 2.1070000 2.1075000 2.1080000 2.1085000 2.1090000 2.1095000 2.1100000 2.1105000 2.1110000 2.1115000 2.1120000 2.1125000 2.1130000 2.1135000 2.1140000 2.1145000 2.1150000 2.1155000 2.1160000 2.1165000 2.1170000 2.1175000 2.1180000 2.1185000 2.1190000 2.1195000 2.1200000 2.1205000 2.1210000 2.1215000 2.1220000 2.1225000 2.1230000 2.1235000 2.1240000 2.1245000 2.1250000 2.1255000 2.1260000 2.1265000 2.1270000 2.1275000 2.1280000 2.1285000 2.1290000 2.1295000 2.1300000 2.1305000 2.1310000 2.1315000 2.1320000 2.1325000 2.1330000 2.1335000 2.1340000 2.1345000 2.1350000 2.1355000 2.1360000 2.1365000 2.1370000 2.1375000 2.1380000 2.1385000 2.1390000 2.1395000 2.1400000 2.1405000 2.1410000 2.1415000 2.1420000 2.1425000 2.1430000 2.1435000 2.1440000 2.1445000 2.1450000 2.1455000 2.1460000 2.1465000 2.1470000 2.1475000 2.1480000 2.1485000 2.1490000 2.1495000 2.1500000 2.1505000 2.1510000 2.1515000 2.1520000 2.1525000 2.1530000 2.1535000 2.1540000 2.1545000 2.1550000 2.1555000 2.1560000 2.1565000 2.1570000 2.1575000 2.1580000 2.1585000 2.1590000 2.1595000 2.1600000 2.1605000 2.1610000 2.1615000 2.1620000 2.1625000 2.1630000 2.1635000 2.1640000 2.1645000 2.1650000 2.1655000 2.1660000 2.1665000 2.1670000 2.1675000 2.1680000 2.1685000 2.1690000 2.1695000 2.1700000 2.1705000 2.1710000 2.1715000 2.1720000 2.1725000 2.1730000 2.1735000 2.1740000 2.1745000 2.1750000 2.1755000 2.1760000 2.1765000 2.1770000 2.1775000 2.1780000 2.1785000 2.1790000 2.1795000 2.1800000 2.1805000 2.1810000 2.1815000 2.1820000 2.1825000 2.1830000 2.1835000 2.1840000 2.1845000 2.1850000 2.1855000 2.1860000 2.1865000 2.1870000 2.1875000 2.1880000 2.1885000 2.1890000 2.1895000 2.1900000 2.1905000 2.1910000 2.1915000 2.1920000 2.1925000 2.1930000 2.1935000 2.1940000 2.1945000 2.1950000 2.1955000 2.1960000 2.1965000 2.1970000 2.1975000 2.1980000 2.1985000 2.1990000 2.1995000 2.2000000 2.2005000 2.2010000 2.2015000 2.2020000 2.2025000 2.2030000 2.2035000 2.2040000 2.2045000 2.2050000 2.2055000 2.2060000 2.2065000 2.2070000 2.2075000 2.2080000 2.2085000 2.2090000 2.2095000 2.2100000 2.2105000 2.2110000 2.2115000 2.2120000 2.2125000 2.2130000 2.2135000 2.2140000 2.2145000 2.2150000 2.2155000 2.2160000 2.2165000 2.2170000 2.2175000 2.2180000 2.2185000 2.2190000 2.2195000 2.2200000 2.2205000 2.2210000 2.2215000 2.2220000 2.2225000 2.2230000 2.2235000 2.2240000 2.2245000 2.2250000 2.2255000 2.2260000 2.2265000 2.2270000 2.2275000 2.2280000 2.2285000 2.2290000 2.2295000 2.2300000 2.2305000 2.2310000 2.2315000 2.2320000 2.2325000 2.2330000 2.2335000 2.2340000 2.2345000 2.2350000 2.2355000 2.2360000 2.2365000 2.2370000 2.2375000 2.2380000 2.2385000 2.2390000 2.2395000 2.2400000 2.2405000 2.2410000 2.2415000 2.2420000 2.2425000 2.2430000 2.2435000 2.2440000 2.2445000 2.2450000 2.2455000 2.2460000 2.2465000 2.2470000 2.2475000 2.2480000 2.2485000 2.2490000 2.2495000 2.2500000 2.2505000 2.2510000 2.2515000 2.2520000 2.2525000 2.2530000 2.2535000 2.2540000 2.2545000 2.2550000 2.2555000 2.2560000 2.2565000 2.2570000 2.2575000 2.2580000 2.2585000 2.2590000 2.2595000 2.2600000 2.2605000 2.2610000 2.2615000 2.2620000 2.2625000 2.2630000 2.2635000 2.2640000 2.2645000 2.2650000 2.2655000 2.2660000 2.2665000 2.2670000 2.2675000 2.2680000 2.2685000 2.2690000 2.2695000 2.2700000 2.2705000 2.2710000 2.2715000 2.2720000 2.2725000 2.2730000 2.2735000 2.2740000 2.2745000 2.2750000 2.2755000 2.2760000 2.2765000 2.2770000 2.2775000 2.2780000 2.2785003 2.2790077 2.2796373 2.2818473 2.2993315 2.4264135 3.1320242 6.0501762 14.9280695 34.4276149 64.1763821 92.5524176 102.0071008 85.7326301 55.1783614 27.6806809 11.5218020 4.8310292 2.8183303 2.3718981 2.2985441 2.2899108 2.2895626 2.2900033 2.2905001 2.2910000 2.2915000 2.2920000 2.2925000 2.2930000 2.2935000 2.2940000 2.2945000 2.2950000 2.2955000 2.2960000 2.2965000 2.2970000 2.2975000 2.2980000 2.2985000 2.2990000 2.2995000 2.3000000 2.3005000 2.3010000 2.3015000 2.3020000 2.3025000 2.3030000 2.3035000 2.3040000 2.3045000 2.3050000 2.3055000 2.3060000 2.3065000 2.3070000 2.3075000 2.3080000 2.3085000 2.3090000 2.3095000 2.3100000 2.3105000 2.3110000 2.3115000 2.3120000 2.3125000 2.3130000 2.3135000 2.3140000 2.3145000 2.3150000 2.3155000 2.3160000 2.3165000 2.3170000 2.3175000 2.3180000 2.3185000 2.3190000 2.3195000 2.3200000 2.3205000 2.3210000 2.3215000 2.3220000 2.3225000 2.3230000 2.3235000 2.3240000 2.3245000 2.3250000 2.3255000 2.3260000 2.3265000 2.3270000 2.3275000 2.3280000 2.3285000 2.3290000 2.3295000 2.3300000 2.3305000 2.3310000 2.3315000 2.3320000 2.3325000 2.3330000 2.3335000 2.3340000 2.3345000 2.3350000 2.3355000 2.3360000 2.3365000 2.3370000 2.3375000 2.3380000 2.3385000 2.3390000 2.3395000 2.3400000 2.3405000 2.3410000 2.3415000 2.3420000 2.3425000 2.3430000 2.3435000 2.3440000 2.3445000 2.3450000 2.3455000 2.3460000 2.3465000 2.3470000 2.3475000 2.3480000 2.3485000 2.3490000 2.3495000 2.3500000 2.3505000 2.3510000 2.3515000 2.3520000 2.3525000 2.3530000 2.3535000 2.3540000 2.3545000 2.3550000 2.3555000 2.3560000 2.3565000 2.3570000 2.3575000 2.3580000 2.3585000 2.3590000 2.3595000 2.3600000 2.3605000 2.3610000 2.3615000 2.3620000 2.3625000 2.3630000 2.3635000 2.3640000 2.3645000 2.3650000 2.3655000 2.3660000 2.3665000 2.3670000 2.3675000 2.3680000 2.3685000 2.3690000 2.3695000 2.3700000 2.3705000 2.3710000 2.3715000 2.3720000 2.3725000 2.3730000 2.3735000 2.3740000 2.3745000 2.3750000 2.3755000 2.3760000 2.3765000 2.3770000 2.3775000 2.3780000 2.3785000 2.3790000 2.3795000 2.3800000 2.3805000 2.3810000 2.3815000 2.3820000 2.3825000 2.3830000 2.3835000 2.3840000 2.3845000 2.3850000 2.3855000 2.3860000 2.3865000 2.3870000 2.3875000 2.3880000 2.3885000 2.3890000 2.3895000 2.3900000 2.3905000 2.3910000 2.3915000 2.3920000 2.3925000 2.3930000 2.3935000 2.3940000 2.3945000 2.3950000 2.3955000 2.3960000 2.3965000 2.3970000 2.3975000 2.3980000 2.3985000 2.3990000 2.3995000 2.4000000 2.4005000 2.4010000 2.4015000 2.4020000 2.4025000 2.4030000 2.4035000 2.4040000 2.4045000 2.4050000 2.4055000 2.4060000 2.4065000 2.4070000 2.4075000 2.4080000 2.4085000 2.4090000 2.4095000 2.4100000 2.4105000 2.4110000 2.4115000 2.4120000 2.4125000 2.4130000 2.4135000 2.4140000 2.4145000 2.4150000 2.4155000 2.4160000 2.4165000 2.4170000 2.4175000 2.4180000 2.4185000 2.4190000 2.4195000 2.4200000 2.4205000 2.4210000 2.4215000 2.4220000 2.4225000 2.4230000 2.4235000 2.4240000 2.4245000 2.4250000 2.4255000 2.4260000 2.4265000 2.4270000 2.4275000 2.4280000 2.4285000 2.4290000 2.4295000 2.4300000 2.4305000 2.4310000 2.4315000 2.4320000 2.4325000 2.4330000 2.4335000 2.4340000 2.4345000 2.4350000 2.4355000 2.4360000 2.4365000 2.4370000 2.4375000 2.4380000 2.4385000 2.4390000 2.4395000 2.4400000 2.4405000 2.4410000 2.4415000 2.4420000 2.4425000 2.4430000 2.4435000 2.4440000 2.4445000 2.4450000 2.4455000 2.4460000 2.4465000 2.4470000 2.4475000 2.4480000 2.4485000 2.4490000 2.4495000 2.4500000 2.4505000 2.4510000 2.4515000 2.4520000 2.4525000 2.4530000 2.4535000 2.4540000 2.4545000 2.4550000 2.4555000 2.4560000 2.4565000 2.4570000 2.4575000 2.4580000 2.4585000 2.4590000 2.4595000 2.4600000 2.4605000 2.4610000 2.4615000 2.4620000 2.4625000 2.4630000 2.4635000 2.4640000 2.4645000 2.4650000 2.4655000 2.4660000 2.4665000 2.4670001 2.4675022 2.4680419 2.4690983 2.4754704 2.5225030 2.7988781 4.0162242 7.9739006 17.3108190 32.7829062 49.3696569 57.4342691 51.2633670 35.2808974 19.1839952 8.9215023 4.3593556 2.8929977 2.5464169 2.4858796 2.4783542 2.4780622 2.4785034 2.4790001 2.4795000 2.4800000 2.4805000 2.4810000 2.4815000 2.4820000 2.4825000 2.4830000 2.4835000 2.4840000 2.4845000 2.4850000 2.4855000 2.4860000 2.4865000 2.4870000 2.4875000 2.4880000 2.4885000 2.4890000 2.4895000 2.4900000 2.4905000 2.4910000 2.4915000 2.4920000 2.4925000 2.4930000 2.4935000 2.4940000 2.4945000 2.4950000 2.4955000 2.4960000 2.4965000 2.4970000 2.4975000 2.4980000 2.4985000 2.4990000 2.4995000 2.5000000 2.5005000 2.5010000 2.5015000 2.5020000 2.5025000 2.5030000 2.5035000 2.5040000 2.5045000 2.5050000 2.5055000 2.5060000 2.5065000 2.5070000 2.5075000 2.5080000 2.5085000 2.5090000 2.5095000 2.5100000 2.5105000 2.5110000 2.5115000 2.5120000 2.5125000 2.5130000 2.5135000 2.5140000 2.5145000 2.5150000 2.5155000 2.5160000 2.5165000 2.5170000 2.5175000 2.5180000 2.5185000 2.5190000 2.5195000 2.5200000 2.5205000 2.5210000 2.5215000 2.5220000 2.5225000 2.5230000 2.5235000 2.5240000 2.5245000 2.5250000 2.5255000 2.5260000 2.5265000 2.5270000 2.5275000 2.5280000 2.5285000 2.5290000 2.5295000 2.5300000 2.5305000 2.5310000 2.5315000 2.5320000 2.5325000 2.5330000 2.5335000 2.5340000 2.5345000 2.5350000 2.5355000 2.5360000 2.5365000 2.5370000 2.5375000 2.5380000 2.5385000 2.5390000 2.5395000 2.5400000 2.5405000 2.5410000 2.5415000 2.5420000 2.5425000 2.5430000 2.5435000 2.5440000 2.5445000 2.5450000 2.5455000 2.5460000 2.5465000 2.5470000 2.5475000 2.5480000 2.5485000 2.5490000 2.5495000 2.5500000 2.5505000 2.5510000 2.5515000 2.5520000 2.5525000 2.5530000 2.5535000 2.5540000 2.5545000 2.5550000 2.5555004 2.5560079 2.5566257 2.5585068 2.5711836 2.6521239 3.0489147 4.4944846 8.3455020 15.6617737 25.0326308 31.7568455 31.2931457 23.9791951 14.6553127 7.7349546 4.2390011 2.9751473 2.6409210 2.5757595 2.5666474 2.5660927 2.5665057 2.5670003 2.5675000 2.5680000 2.5685000 2.5690000 2.5695000 2.5700000 2.5705000 2.5710000 2.5715000 2.5720000 2.5725000 2.5730000 2.5735000 2.5740000 2.5745000 2.5750000 2.5755000 2.5760000 2.5765000 2.5770000 2.5775000 2.5780000 2.5785000 2.5790000 2.5795000 2.5800000 2.5805000 2.5810000 2.5815000 2.5820000 2.5825000 2.5830000 2.5835000 2.5840000 2.5845000 2.5850000 2.5855000 2.5860000 2.5865000 2.5870000 2.5875000 2.5880000 2.5885000 2.5890000 2.5895000 2.5900000 2.5905000 2.5910000 2.5915000 2.5920000 2.5925000 2.5930000 2.5935000 2.5940000 2.5945000 2.5950000 2.5955000 2.5960000 2.5965000 2.5970000 2.5975000 2.5980000 2.5985000 2.5990000 2.5995000 2.6000000 2.6005000 2.6010000 2.6015000 2.6020000 2.6025000 2.6030000 2.6035000 2.6040000 2.6045000 2.6050000 2.6055000 2.6060000 2.6065000 2.6070000 2.6075000 2.6080000 2.6085000 2.6090000 2.6095000 2.6100000 2.6105000 2.6110000 2.6115000 2.6120000 2.6125000 2.6130000 2.6135000 2.6140000 2.6145000 2.6150000 2.6155000 2.6160000 2.6165000 2.6170000 2.6175000 2.6180000 2.6185000 2.6190000 2.6195000 2.6200000 2.6205000 2.6210000 2.6215000 2.6220000 2.6225000 2.6230000 2.6235000 2.6240000 2.6245000 2.6250000 2.6255000 2.6260000 2.6265000 2.6270000 2.6275000 2.6280000 2.6285000 2.6290000 2.6295000 2.6300000 2.6305000 2.6310000 2.6315000 2.6320000 2.6325000 2.6330000 2.6335000 2.6340000 2.6345000 2.6350000 2.6355000 2.6360000 2.6365000 2.6370000 2.6375000 2.6380000 2.6385000 2.6390000 2.6395000 2.6400000 2.6405000 2.6410000 2.6415000 2.6420000 2.6425000 2.6430000 2.6435000 2.6440000 2.6445000 2.6450000 2.6455000 2.6460000 2.6465000 2.6470000 2.6475000 2.6480000 2.6485000 2.6490000 2.6495000 2.6500000 2.6505000 2.6510000 2.6515000 2.6520000 2.6525000 2.6530000 2.6535000 2.6540000 2.6545000 2.6550000 2.6555000 2.6560000 2.6565000 2.6570000 2.6575000 2.6580000 2.6585000 2.6590000 2.6595000 2.6600000 2.6605000 2.6610000 2.6615000 2.6620000 2.6625000 2.6630000 2.6635000 2.6640000 2.6645000 2.6650000 2.6655000 2.6660000 2.6665000 2.6670000 2.6675000 2.6680000 2.6685000 2.6690000 2.6695000 2.6700000 2.6705000 2.6710000 2.6715000 2.6720000 2.6725000 2.6730000 2.6735000 2.6740000 2.6745000 2.6750000 2.6755000 2.6760000 2.6765000 2.6770000 2.6775000 2.6780000 2.6785000 2.6790000 2.6795000 2.6800000 2.6805000 2.6810000 2.6815000 2.6820000 2.6825000 2.6830000 2.6835000 2.6840000 2.6845000 2.6850000 2.6855001 2.6860022 2.6865368 2.6874670 2.6919853 2.7206290 2.8682951 3.4394380 5.0620445 8.3716772 12.9967671 16.8518354 17.4295152 14.3105457 9.6303864 5.8310889 3.7686423 2.9730161 2.7493473 2.7031666 2.6964211 2.6960787 2.6965051 2.6970002 2.6975000 2.6980000 2.6985000 2.6990000 2.6995000 2.7000000 2.7005000 2.7010000 2.7015000 2.7020000 2.7025000 2.7030000 2.7035000 2.7040000 2.7045000 2.7050000 2.7055000 2.7060000 2.7065000 2.7070000 2.7075000 2.7080000 2.7085000 2.7090000 2.7095000 2.7100000 2.7105000 2.7110000 2.7115000 2.7120000 2.7125000 2.7130000 2.7135000 2.7140000 2.7145000 2.7150000 2.7155000 2.7160000 2.7165000 2.7170000 2.7175000 2.7180000 2.7185000 2.7190000 2.7195000 2.7200000 2.7205000 2.7210000 2.7215000 2.7220000 2.7225000 2.7230000 2.7235000 2.7240000 2.7245000 2.7250000 2.7255000 2.7260000 2.7265000 2.7270000 2.7275000 2.7280000 2.7285000 2.7290000 2.7295000 2.7300000 2.7305000 2.7310000 2.7315000 2.7320000 2.7325000 2.7330000 2.7335000 2.7340000 2.7345000 2.7350000 2.7355000 2.7360000 2.7365000 2.7370000 2.7375000 2.7380000 2.7385000 2.7390000 2.7395000 2.7400000 2.7405000 2.7410000 2.7415000 2.7420000 2.7425000 2.7430000 2.7435000 2.7440000 2.7445000 2.7450000 2.7455000 2.7460000 2.7465000 2.7470000 2.7475000 2.7480000 2.7485000 2.7490000 2.7495000 2.7500000 2.7505000 2.7510000 2.7515000 2.7520000 2.7525000 2.7530000 2.7535000 2.7540000 2.7545000 2.7550000 2.7555000 2.7560000 2.7565000 2.7570000 2.7575000 2.7580001 2.7585017 2.7590283 2.7598539 2.7633484 2.7844991 2.8912926 3.2973041 4.4309952 6.7004191 9.8008683 12.2909817 12.5336218 10.3527220 7.2294190 4.7550392 3.4375877 2.9382179 2.8002576 2.7723790 2.7685422 2.7685456 2.7690029 2.7695001 2.7700000 2.7705000 2.7710000 2.7715000 2.7720000 2.7725000 2.7730000 2.7735000 2.7740000 2.7745000 2.7750000 2.7755000 2.7760000 2.7765000 2.7770000 2.7775000 2.7780000 2.7785000 2.7790000 2.7795000 2.7800000 2.7805000 2.7810000 2.7815000 2.7820000 2.7825000 2.7830000 2.7835000 2.7840000 2.7845000 2.7850000 2.7855000 2.7860000 2.7865000 2.7870000 2.7875000 2.7880000 2.7885000 2.7890000 2.7895000 2.7900000 2.7905000 2.7910000 2.7915000 2.7920000 2.7925000 2.7930000 2.7935000 2.7940000 2.7945000 2.7950000 2.7955000 2.7960000 2.7965000 2.7970000 2.7975000 2.7980000 2.7985000 2.7990000 2.7995000 2.8000000</intensities>
  </scan>
</xrdMeasurements>
